
Gurobi 11.0.3 (linux64) logging started Thu Apr 16 23:57:45 2026

Set parameter LogFile to value "tree/results/fish/fish_depth-4_run-2/Full MIP/LogFile_FullModel.txt"
Gurobi Optimizer version 11.0.3 build v11.0.3rc0 (linux64 - "CentOS Linux 7 (Core)")

CPU model: Intel(R) Xeon(R) Platinum 8260 CPU @ 2.40GHz, instruction set [SSE2|AVX|AVX2|AVX512]
Thread count: 96 physical cores, 192 logical processors, using up to 32 threads

Optimize a model with 636812 rows, 391978 columns and 3140052 nonzeros
Model fingerprint: 0x0113206d
Model has 48960 general constraints
Variable types: 244954 continuous, 147024 integer (147024 binary)
Coefficient statistics:
  Matrix range     [3e-04, 1e+04]
  Objective range  [3e-04, 1e+04]
  Bounds range     [1e+00, 3e+03]
  RHS range        [1e-04, 3e+03]

User MIP start produced solution with objective -50399.2 (1.83s)
Loaded user MIP start with objective -50399.2
Processed MIP start in 2.52 seconds (0.35 work units)

Presolve removed 195856 rows and 195840 columns (presolve time = 5s) ...
Presolve removed 195856 rows and 195840 columns (presolve time = 10s) ...
Presolve added 48944 rows and 195840 columns
Presolve time: 10.12s
Presolved: 685756 rows, 587818 columns, 3532980 nonzeros
Presolved model has 195840 SOS constraint(s)
Variable types: 244954 continuous, 342864 integer (342864 binary)

Deterministic concurrent LP optimizer: primal simplex, dual simplex, and barrier
Showing barrier log only...

Root relaxation presolved: 685756 rows, 587818 columns, 3532980 nonzeros

Root barrier log...

Ordering time: 0.34s

Barrier statistics:
 Dense cols : 60
 AA' NZ     : 3.697e+06
 Factor NZ  : 1.244e+07 (roughly 600 MB of memory)
 Factor Ops : 2.452e+08 (less than 1 second per iteration)
 Threads    : 30

                  Objective                Residual
Iter       Primal          Dual         Primal    Dual     Compl     Time
   0  -9.90354326e+04  4.70872469e+09  9.00e+03 5.68e-14  7.72e+05    23s
   1  -5.70250291e+04  7.95703188e+09  3.59e+03 2.03e+01  2.54e+05    24s
   2  -2.83569204e+04  7.88908375e+09  3.57e+02 5.33e+00  3.03e+04    26s
   3  -1.87458561e+04  4.55816410e+09  3.54e+01 6.38e-01  5.15e+03    28s
   4  -2.32437566e+03  7.07602159e+08  3.50e+00 6.37e-02  6.18e+02    29s
   5  -2.33468004e+02  8.49589217e+07  3.47e-01 6.36e-03  6.85e+01    30s
   6  -2.30113854e+01  8.77008653e+06  3.51e-02 6.36e-04  6.87e+00    31s
   7  -1.96512173e+00  8.84667062e+05  3.84e-03 6.41e-05  6.91e-01    32s
   8   1.45955012e-01  9.69601114e+04  6.33e-04 7.03e-06  7.57e-02    33s
   9   4.99242176e-01  1.85359204e+04  6.28e-05 1.34e-06  1.45e-02    35s

Barrier performed 9 iterations in 34.89 seconds (17.51 work units)
Barrier solve interrupted - model solved by another algorithm

Concurrent spin time: 8.07s (can be avoided by choosing Method=3)

Solved with primal simplex

Root relaxation: objective 1.000000e+00, 49422 iterations, 18.22 seconds (6.31 work units)
Total elapsed time = 35.15s (DegenMoves)
Total elapsed time = 87.77s (DegenMoves)

    Nodes    |    Current Node    |     Objective Bounds      |     Work
 Expl Unexpl |  Obj  Depth IntInf | Incumbent    BestBd   Gap | It/Node Time

     0     0    1.00000    0 42990 -50399.217    1.00000   100%     -   89s
     0     2    1.00000    0 42990 -50399.217    1.00000   100%     -  347s
     1     4    1.00000    1 43067 -50399.217    1.00000   100% 12234  740s
     3     8    1.00000    2 34882 -50399.217    1.00000   100%  7950 1024s
     7    16    1.00000    3 32540 -50399.217    1.00000   100%  5000 1150s
    15    32    1.00000    4 32539 -50399.217    1.00000   100%  3605 1328s
    31    64    1.00000    5 32539 -50399.217    1.00000   100%  3155 1694s
    63    96    1.00000    6  118 -50399.217    1.00000   100%  1727 3603s

Explored 95 nodes (179816 simplex iterations) in 3605.84 seconds (4329.44 work units)
Thread count was 32 (of 192 available processors)

Solution count 1: -50399.2 

Time limit reached
Best objective -5.039921666667e+04, best bound 1.000000000000e+00, gap 100.0020%

User-callback calls 767713, time in user-callback 5.32 sec
